# Objective value = 0
A_0_0 0
A_1_0 0
A_1_1 0
A_2_0 0
A_2_1 0
A_2_2 0
A_3_0 1
A_3_1 0
A_3_2 0
A_3_3 1
z1_0 0
z1_1 0
z1_2 0
z1_3 0
z1_4 0
z2_0 0
z2_1 0
z2_2 0
z2_3 0
z2_4 0
z3_0 0
z3_1 0
z3_2 0
z3_3 0
z3_4 0
z4_0 0
z4_1 0
z4_2 0
z4_3 0
z4_4 0
